p cnf 666 933
45 0
-45 46 0
-45 649 0
-46 47 0
-46 48 0
-47 -1 -2 0
-48 49 0
-48 50 0
-49 -3 -4 0
-50 51 0
-50 52 0
-51 -3 -1 0
-52 53 0
-52 54 0
-53 -3 -5 0
-54 55 0
-54 56 0
-55 -3 -6 0
-56 57 0
-56 58 0
-57 -3 -7 0
-58 59 0
-58 60 0
-59 -3 -8 0
-60 61 0
-60 62 0
-61 -3 -9 0
-62 63 0
-62 64 0
-63 -3 -10 0
-64 65 0
-64 66 0
-65 -3 -11 0
-66 67 0
-66 68 0
-67 -3 -12 0
-68 69 0
-68 70 0
-69 -3 -13 0
-70 71 0
-70 72 0
-71 -6 -7 0
-72 73 0
-72 74 0
-73 -6 -5 0
-74 75 0
-74 76 0
-75 -3 -2 0
-76 77 0
-76 78 0
-77 -4 -1 0
-78 79 0
-78 80 0
-79 -4 -6 0
-80 81 0
-80 82 0
-81 -4 -7 0
-82 83 0
-82 84 0
-83 -4 -5 0
-84 85 0
-84 86 0
-85 -4 -9 0
-86 87 0
-86 88 0
-87 -4 -10 0
-88 89 0
-88 90 0
-89 -4 -11 0
-90 91 0
-90 92 0
-91 -4 -12 0
-92 93 0
-92 94 0
-93 -4 -13 0
-94 95 0
-94 96 0
-95 -4 -8 0
-96 97 0
-96 98 0
-97 -4 -2 0
-98 99 0
-98 100 0
-99 -1 -6 0
-100 101 0
-100 102 0
-101 -1 -7 0
-102 103 0
-102 104 0
-103 -1 -5 0
-104 105 0
-104 106 0
-105 -1 -9 0
-106 107 0
-106 108 0
-107 -1 -10 0
-108 109 0
-108 110 0
-109 -1 -11 0
-110 111 0
-110 112 0
-111 -1 -12 0
-112 113 0
-112 114 0
-113 -1 -13 0
-114 115 0
-114 116 0
-115 -1 -8 0
-116 117 0
-116 118 0
-117 -12 -8 0
-118 119 0
-118 120 0
-119 -12 -2 0
-120 121 0
-120 122 0
-121 -13 -8 0
-122 123 0
-122 124 0
-123 -13 -2 0
-124 125 0
-124 126 0
-125 -8 -2 0
-126 127 0
-126 128 0
-127 -6 -9 0
-128 129 0
-128 130 0
-129 -6 -10 0
-130 131 0
-130 132 0
-131 -6 -11 0
-132 133 0
-132 134 0
-133 -6 -12 0
-134 135 0
-134 136 0
-135 -6 -13 0
-136 137 0
-136 138 0
-137 -6 -8 0
-138 139 0
-138 140 0
-139 -6 -2 0
-140 141 0
-140 142 0
-141 -7 -5 0
-142 143 0
-142 144 0
-143 -7 -9 0
-144 145 0
-144 146 0
-145 -7 -10 0
-146 147 0
-146 148 0
-147 -7 -11 0
-148 149 0
-148 150 0
-149 -7 -12 0
-150 151 0
-150 152 0
-151 -7 -13 0
-152 153 0
-152 154 0
-153 -7 -8 0
-154 155 0
-154 156 0
-155 -7 -2 0
-156 157 0
-156 158 0
-157 -14 -5 0
-158 159 0
-158 160 0
-159 -14 -9 0
-160 161 0
-160 162 0
-161 -14 -10 0
-162 163 0
-162 164 0
-163 -14 -11 0
-164 165 0
-164 166 0
-165 -14 -12 0
-166 167 0
-166 168 0
-167 -14 -13 0
-168 169 0
-168 170 0
-169 -14 -8 0
-170 171 0
-170 172 0
-171 -14 -2 0
-172 173 0
-172 174 0
-173 -5 -9 0
-174 175 0
-174 176 0
-175 -5 -10 0
-176 177 0
-176 178 0
-177 -5 -11 0
-178 179 0
-178 180 0
-179 -5 -12 0
-180 181 0
-180 182 0
-181 -5 -13 0
-182 183 0
-182 184 0
-183 -5 -8 0
-184 185 0
-184 186 0
-185 -5 -2 0
-186 187 0
-186 188 0
-187 -9 -10 0
-188 189 0
-188 190 0
-189 -9 -11 0
-190 191 0
-190 192 0
-191 -9 -12 0
-192 193 0
-192 194 0
-193 -9 -13 0
-194 195 0
-194 196 0
-195 -9 -8 0
-196 197 0
-196 198 0
-197 -9 -2 0
-198 199 0
-198 200 0
-199 -10 -11 0
-200 201 0
-200 202 0
-201 -10 -12 0
-202 203 0
-202 204 0
-203 -10 -13 0
-204 205 0
-204 206 0
-205 -10 -8 0
-206 207 0
-206 208 0
-207 -10 -2 0
-208 209 0
-208 210 0
-209 -11 -12 0
-210 211 0
-210 212 0
-211 -11 -13 0
-212 213 0
-212 214 0
-213 -11 -8 0
-214 215 0
-214 216 0
-215 -11 -2 0
-216 217 0
-216 218 0
-217 -12 -13 0
-218 219 0
-218 220 0
-219 -15 -16 0
-220 221 0
-220 222 0
-221 -15 -17 0
-222 223 0
-222 224 0
-223 -18 -16 0
-224 225 0
-224 226 0
-225 -18 -17 0
-226 227 0
-226 228 0
-227 -16 -17 0
-228 229 0
-228 230 0
-229 -19 -20 0
-230 231 0
-230 232 0
-231 -19 -21 0
-232 233 0
-232 234 0
-233 -19 -22 0
-234 235 0
-234 236 0
-235 -23 -24 0
-236 237 0
-236 238 0
-237 -23 -25 0
-238 239 0
-238 240 0
-239 -23 -26 0
-240 241 0
-240 242 0
-241 -23 -27 0
-242 243 0
-242 244 0
-243 -23 -28 0
-244 245 0
-244 246 0
-245 -23 -29 0
-246 247 0
-246 248 0
-247 -23 -30 0
-248 249 0
-248 250 0
-249 -23 -15 0
-250 251 0
-250 252 0
-251 -23 -18 0
-252 253 0
-252 254 0
-253 -23 -16 0
-254 255 0
-254 256 0
-255 -23 -17 0
-256 257 0
-256 258 0
-257 -24 -25 0
-258 259 0
-258 260 0
-259 -24 -26 0
-260 261 0
-260 262 0
-261 -24 -27 0
-262 263 0
-262 264 0
-263 -24 -28 0
-264 265 0
-264 266 0
-265 -24 -29 0
-266 267 0
-266 268 0
-267 -24 -30 0
-268 269 0
-268 270 0
-269 -24 -15 0
-270 271 0
-270 272 0
-271 -24 -18 0
-272 273 0
-272 274 0
-273 -24 -16 0
-274 275 0
-274 276 0
-275 -24 -17 0
-276 277 0
-276 278 0
-277 -25 -26 0
-278 279 0
-278 280 0
-279 -25 -27 0
-280 281 0
-280 282 0
-281 -25 -28 0
-282 283 0
-282 284 0
-283 -25 -29 0
-284 285 0
-284 286 0
-285 -25 -30 0
-286 287 0
-286 288 0
-287 -25 -15 0
-288 289 0
-288 290 0
-289 -25 -18 0
-290 291 0
-290 292 0
-291 -25 -16 0
-292 293 0
-292 294 0
-293 -25 -17 0
-294 295 0
-294 296 0
-295 -26 -27 0
-296 297 0
-296 298 0
-297 -26 -28 0
-298 299 0
-298 300 0
-299 -26 -29 0
-300 301 0
-300 302 0
-301 -26 -30 0
-302 303 0
-302 304 0
-303 -26 -15 0
-304 305 0
-304 306 0
-305 -26 -18 0
-306 307 0
-306 308 0
-307 -26 -16 0
-308 309 0
-308 310 0
-309 -26 -17 0
-310 311 0
-310 312 0
-311 -27 -28 0
-312 313 0
-312 314 0
-313 -27 -29 0
-314 315 0
-314 316 0
-315 -27 -30 0
-316 317 0
-316 318 0
-317 -27 -15 0
-318 319 0
-318 320 0
-319 -27 -18 0
-320 321 0
-320 322 0
-321 -27 -16 0
-322 323 0
-322 324 0
-323 -27 -17 0
-324 325 0
-324 326 0
-325 -28 -29 0
-326 327 0
-326 328 0
-327 -28 -30 0
-328 329 0
-328 330 0
-329 -28 -15 0
-330 331 0
-330 332 0
-331 -28 -18 0
-332 333 0
-332 334 0
-333 -28 -16 0
-334 335 0
-334 336 0
-335 -28 -17 0
-336 337 0
-336 338 0
-337 -29 -30 0
-338 339 0
-338 340 0
-339 -29 -15 0
-340 341 0
-340 342 0
-341 -29 -18 0
-342 343 0
-342 344 0
-343 -29 -16 0
-344 345 0
-344 346 0
-345 -29 -17 0
-346 347 0
-346 348 0
-347 -31 -32 0
-348 349 0
-348 350 0
-349 -31 -30 0
-350 351 0
-350 352 0
-351 -31 -15 0
-352 353 0
-352 354 0
-353 -31 -18 0
-354 355 0
-354 356 0
-355 -31 -16 0
-356 357 0
-356 358 0
-357 -31 -17 0
-358 359 0
-358 360 0
-359 -32 -30 0
-360 361 0
-360 362 0
-361 -32 -15 0
-362 363 0
-362 364 0
-363 -32 -18 0
-364 365 0
-364 366 0
-365 -32 -16 0
-366 367 0
-366 368 0
-367 -32 -17 0
-368 369 0
-368 370 0
-369 -30 -15 0
-370 371 0
-370 372 0
-371 -30 -18 0
-372 373 0
-372 374 0
-373 -30 -16 0
-374 375 0
-374 376 0
-375 -30 -17 0
-376 377 0
-376 378 0
-377 -15 -18 0
-378 379 0
-378 380 0
-379 -19 -33 0
-380 381 0
-380 382 0
-381 -19 -34 0
-382 383 0
-382 384 0
-383 -19 -35 0
-384 385 0
-384 386 0
-385 -19 -36 0
-386 387 0
-386 388 0
-387 -19 -37 0
-388 389 0
-388 390 0
-389 -19 -38 0
-390 391 0
-390 392 0
-391 -19 -39 0
-392 393 0
-392 394 0
-393 -19 -40 0
-394 395 0
-394 396 0
-395 -19 -41 0
-396 397 0
-396 398 0
-397 -19 -42 0
-398 399 0
-398 400 0
-399 -19 -43 0
-400 401 0
-400 402 0
-401 -19 -44 0
-402 403 0
-402 404 0
-403 -20 -21 0
-404 405 0
-404 406 0
-405 -20 -22 0
-406 407 0
-406 408 0
-407 -20 -33 0
-408 409 0
-408 410 0
-409 -20 -34 0
-410 411 0
-410 412 0
-411 -20 -35 0
-412 413 0
-412 414 0
-413 -20 -36 0
-414 415 0
-414 416 0
-415 -20 -37 0
-416 417 0
-416 418 0
-417 -20 -38 0
-418 419 0
-418 420 0
-419 -20 -39 0
-420 421 0
-420 422 0
-421 -20 -40 0
-422 423 0
-422 424 0
-423 -20 -41 0
-424 425 0
-424 426 0
-425 -20 -42 0
-426 427 0
-426 428 0
-427 -20 -43 0
-428 429 0
-428 430 0
-429 -20 -44 0
-430 431 0
-430 432 0
-431 -21 -22 0
-432 433 0
-432 434 0
-433 -21 -33 0
-434 435 0
-434 436 0
-435 -21 -34 0
-436 437 0
-436 438 0
-437 -21 -35 0
-438 439 0
-438 440 0
-439 -21 -36 0
-440 441 0
-440 442 0
-441 -21 -37 0
-442 443 0
-442 444 0
-443 -21 -38 0
-444 445 0
-444 446 0
-445 -21 -39 0
-446 447 0
-446 448 0
-447 -21 -40 0
-448 449 0
-448 450 0
-449 -21 -41 0
-450 451 0
-450 452 0
-451 -21 -42 0
-452 453 0
-452 454 0
-453 -21 -43 0
-454 455 0
-454 456 0
-455 -21 -44 0
-456 457 0
-456 458 0
-457 -22 -33 0
-458 459 0
-458 460 0
-459 -22 -34 0
-460 461 0
-460 462 0
-461 -22 -35 0
-462 463 0
-462 464 0
-463 -22 -36 0
-464 465 0
-464 466 0
-465 -22 -37 0
-466 467 0
-466 468 0
-467 -22 -38 0
-468 469 0
-468 470 0
-469 -22 -39 0
-470 471 0
-470 472 0
-471 -22 -40 0
-472 473 0
-472 474 0
-473 -22 -41 0
-474 475 0
-474 476 0
-475 -22 -42 0
-476 477 0
-476 478 0
-477 -22 -43 0
-478 479 0
-478 480 0
-479 -22 -44 0
-480 481 0
-480 482 0
-481 -33 -34 0
-482 483 0
-482 484 0
-483 -33 -35 0
-484 485 0
-484 486 0
-485 -33 -36 0
-486 487 0
-486 488 0
-487 -33 -37 0
-488 489 0
-488 490 0
-489 -33 -38 0
-490 491 0
-490 492 0
-491 -33 -39 0
-492 493 0
-492 494 0
-493 -33 -40 0
-494 495 0
-494 496 0
-495 -33 -41 0
-496 497 0
-496 498 0
-497 -33 -42 0
-498 499 0
-498 500 0
-499 -33 -43 0
-500 501 0
-500 502 0
-501 -33 -44 0
-502 503 0
-502 504 0
-503 -34 -35 0
-504 505 0
-504 506 0
-505 -34 -36 0
-506 507 0
-506 508 0
-507 -34 -37 0
-508 509 0
-508 510 0
-509 -34 -38 0
-510 511 0
-510 512 0
-511 -34 -39 0
-512 513 0
-512 514 0
-513 -34 -40 0
-514 515 0
-514 516 0
-515 -34 -41 0
-516 517 0
-516 518 0
-517 -34 -42 0
-518 519 0
-518 520 0
-519 -34 -43 0
-520 521 0
-520 522 0
-521 -34 -44 0
-522 523 0
-522 524 0
-523 -35 -36 0
-524 525 0
-524 526 0
-525 -35 -37 0
-526 527 0
-526 528 0
-527 -35 -38 0
-528 529 0
-528 530 0
-529 -35 -39 0
-530 531 0
-530 532 0
-531 -35 -40 0
-532 533 0
-532 534 0
-533 -35 -41 0
-534 535 0
-534 536 0
-535 -35 -42 0
-536 537 0
-536 538 0
-537 -35 -43 0
-538 539 0
-538 540 0
-539 -35 -44 0
-540 541 0
-540 542 0
-541 -36 -37 0
-542 543 0
-542 544 0
-543 -36 -38 0
-544 545 0
-544 546 0
-545 -36 -39 0
-546 547 0
-546 548 0
-547 -36 -40 0
-548 549 0
-548 550 0
-549 -36 -41 0
-550 551 0
-550 552 0
-551 -36 -42 0
-552 553 0
-552 554 0
-553 -36 -43 0
-554 555 0
-554 556 0
-555 -36 -44 0
-556 557 0
-556 558 0
-557 -37 -38 0
-558 559 0
-558 560 0
-559 -37 -39 0
-560 561 0
-560 562 0
-561 -37 -40 0
-562 563 0
-562 564 0
-563 -37 -41 0
-564 565 0
-564 566 0
-565 -37 -42 0
-566 567 0
-566 568 0
-567 -37 -43 0
-568 569 0
-568 570 0
-569 -37 -44 0
-570 571 0
-570 572 0
-571 -38 -39 0
-572 573 0
-572 574 0
-573 -38 -40 0
-574 575 0
-574 576 0
-575 -38 -41 0
-576 577 0
-576 578 0
-577 -38 -42 0
-578 579 0
-578 580 0
-579 -38 -43 0
-580 581 0
-580 582 0
-581 -38 -44 0
-582 583 0
-582 584 0
-583 -39 -40 0
-584 585 0
-584 586 0
-585 -39 -41 0
-586 587 0
-586 588 0
-587 -39 -42 0
-588 589 0
-588 590 0
-589 -39 -43 0
-590 591 0
-590 592 0
-591 -39 -44 0
-592 593 0
-592 594 0
-593 -40 -41 0
-594 595 0
-594 596 0
-595 -40 -42 0
-596 597 0
-596 598 0
-597 -40 -43 0
-598 599 0
-598 600 0
-599 -40 -44 0
-600 601 0
-600 602 0
-601 -41 -42 0
-602 603 0
-602 604 0
-603 -41 -43 0
-604 605 0
-604 606 0
-605 -41 -44 0
-606 607 0
-606 608 0
-607 -42 -43 0
-608 609 0
-608 610 0
-609 -42 -44 0
-610 611 0
-610 612 0
-611 -43 -44 0
-612 613 0
-612 614 0
-613 -32 -29 0
-614 615 0
-614 616 0
-615 -31 -29 0
-616 617 0
-616 618 0
-617 -32 -28 0
-618 619 0
-618 620 0
-619 -31 -28 0
-620 621 0
-620 622 0
-621 -32 -27 0
-622 623 0
-622 624 0
-623 -31 -27 0
-624 625 0
-624 626 0
-625 -32 -26 0
-626 627 0
-626 628 0
-627 -31 -26 0
-628 629 0
-628 630 0
-629 -32 -25 0
-630 631 0
-630 632 0
-631 -31 -25 0
-632 633 0
-632 634 0
-633 -32 -24 0
-634 635 0
-634 636 0
-635 -31 -24 0
-636 637 0
-636 638 0
-637 -32 -23 0
-638 639 0
-638 640 0
-639 -31 -23 0
-640 641 0
-640 642 0
-641 -14 -7 0
-642 643 0
-642 644 0
-643 -14 -6 0
-644 645 0
-644 646 0
-645 -14 -1 0
-646 647 0
-646 648 0
-647 -14 -4 0
-648 -14 -3 0
-649 650 658 0
-650 -31 0
-650 651 0
-651 -32 0
-651 652 0
-652 -23 0
-652 653 0
-653 -24 0
-653 654 0
-654 -25 0
-654 655 0
-655 -26 0
-655 656 0
-656 -27 0
-656 657 0
-657 -28 0
-657 -29 0
-658 659 -20 0
-659 19 660 0
-660 20 661 0
-661 21 662 0
-662 22 663 0
-663 33 664 0
-664 34 665 0
-665 35 666 0
-666 36 37 0
